proyfinal/src/viki/013/andrea/andrea-localstore/experimentInOfficeAgust.take6/worker_10/efbb95a2-f24a-4a49-b3ff-e2a52caacd6d.als.cnf.out
Reading from standard input... Use '--help' for help.
============================[ Problem Statistics ]=============================
|                                                                             |
|  Number of variables:         87638                                         |
|  Number of clauses:          161767                                         |
|  Parse time:                   0.03 s                                       |
|                                                                             |
============================[ Search Statistics ]==============================
| Conflicts |          ORIGINAL         |          LEARNT          | Progress |
|           |    Vars  Clauses Literals |    Limit  Clauses Lit/Cl |          |
===============================================================================
|       100 |   62631   106083   265239 |    38897      100     18 | 28.534 % |
|       250 |   62631   106083   265239 |    42786      250     32 | 28.534 % |
|       475 |   62630   106039   265149 |    47065      474     44 | 28.536 % |
|       812 |   62630   106039   265149 |    51772      811     58 | 28.536 % |
|      1318 |   62626   106023   265105 |    56949     1269     73 | 28.540 % |
|      2077 |   62626   106023   265105 |    62644     2028     78 | 28.540 % |
===============================================================================
restarts              : 15
conflicts             : 2837           (6823 /sec)
decisions             : 7761           (0.00 % random) (18666 /sec)
propagations          : 4461034        (10729391 /sec)
conflict literals     : 189543         (58.41 % deleted)
Memory used           : 24.50 MB
CPU time              : 0.415777 s

UNSATISFIABLE
